NAME : rbg040a.tw.5679.tour
COMMENT : Length = 5679
COMMENT : Found by LKH [Keld Helsgaun] Sun Sep 10 01:17:35 2017
TYPE : TOUR
DIMENSION : 41
TOUR_SECTION
1
3
2
4
9
6
5
12
8
7
15
10
16
14
11
13
21
17
24
18
20
19
23
26
28
25
22
30
27
31
29
32
33
37
36
35
39
38
34
40
41
-1
EOF
